# Solution for model GNN
# Objective value = 1.6053017749130367e+00
A[0,0] 1
A[0,1] 1
A[0,2] 0
A[0,3] 0
A[1,0] 1
A[1,1] 1
A[1,2] 1
A[1,3] 1
A[2,0] 0
A[2,1] 1
A[2,2] 1
A[2,3] 0
A[3,0] 0
A[3,1] 1
A[3,2] 0
A[3,3] 1
x[0,0] 0
x[0,1] 1
x[0,2] 0
x[0,3] 0
x[0,4] 0
x[0,5] 1
x[0,6] 0
x[0,7] 0
x[0,8] 0
x[0,9] 0
x[0,10] 1
x[0,11] 0
x[0,12] 0
x[0,13] 0
x[1,0] 1
x[1,1] 0
x[1,2] 0
x[1,3] 0
x[1,4] 0
x[1,5] 0
x[1,6] 0
x[1,7] 1
x[1,8] 0
x[1,9] 0
x[1,10] 1
x[1,11] 0
x[1,12] 0
x[1,13] 0
x[2,0] 0
x[2,1] 1
x[2,2] 0
x[2,3] 0
x[2,4] 0
x[2,5] 1
x[2,6] 0
x[2,7] 0
x[2,8] 0
x[2,9] 0
x[2,10] 1
x[2,11] 0
x[2,12] 0
x[2,13] 0
x[3,0] 0
x[3,1] 1
x[3,2] 0
x[3,3] 0
x[3,4] 0
x[3,5] 1
x[3,6] 0
x[3,7] 0
x[3,8] 0
x[3,9] 0
x[3,10] 1
x[3,11] 0
x[3,12] 0
x[3,13] 0
c[0,0,0] 0
c[0,0,1] 0
c[0,0,2] 0
c[0,0,3] 0
c[0,0,4] 0
c[0,0,5] 0
c[0,0,6] 0
c[0,0,7] 0
c[0,0,8] 0
c[0,0,9] 0
c[0,0,10] 0
c[0,0,11] 0
c[0,0,12] 1
c[0,0,13] 0
c[0,0,14] 0
c[0,0,15] 0
c[0,0,16] 0
c[0,0,17] 0
c[0,0,18] 0
c[0,0,19] 0
c[0,0,20] 0
c[0,0,21] 0
c[0,0,22] 0
c[0,0,23] 0
c[0,0,24] 0
c[0,1,0] 0
c[0,1,1] 0
c[0,1,2] 0
c[0,1,3] 0
c[0,1,4] 0
c[0,1,5] 0
c[0,1,6] 0
c[0,1,7] 0
c[0,1,8] 0
c[0,1,9] 0
c[0,1,10] 0
c[0,1,11] 0
c[0,1,12] 0
c[0,1,13] 0
c[0,1,14] 1
c[0,1,15] 0
c[0,1,16] 0
c[0,1,17] 0
c[0,1,18] 0
c[0,1,19] 0
c[0,1,20] 0
c[0,1,21] 0
c[0,1,22] 0
c[0,1,23] 0
c[0,1,24] 0
c[0,2,0] 0
c[0,2,1] 0
c[0,2,2] 0
c[0,2,3] 0
c[0,2,4] 0
c[0,2,5] 0
c[0,2,6] 0
c[0,2,7] 0
c[0,2,8] 0
c[0,2,9] 0
c[0,2,10] 0
c[0,2,11] 0
c[0,2,12] 1
c[0,2,13] 0
c[0,2,14] 0
c[0,2,15] 0
c[0,2,16] 0
c[0,2,17] 0
c[0,2,18] 0
c[0,2,19] 0
c[0,2,20] 0
c[0,2,21] 0
c[0,2,22] 0
c[0,2,23] 0
c[0,2,24] 0
c[0,3,0] 0
c[0,3,1] 0
c[0,3,2] 0
c[0,3,3] 0
c[0,3,4] 0
c[0,3,5] 0
c[0,3,6] 0
c[0,3,7] 0
c[0,3,8] 0
c[0,3,9] 0
c[0,3,10] 0
c[0,3,11] 0
c[0,3,12] 1
c[0,3,13] 0
c[0,3,14] 0
c[0,3,15] 0
c[0,3,16] 0
c[0,3,17] 0
c[0,3,18] 0
c[0,3,19] 0
c[0,3,20] 0
c[0,3,21] 0
c[0,3,22] 0
c[0,3,23] 0
c[0,3,24] 0
c[1,0,0] 0
c[1,0,1] 0
c[1,0,2] 0
c[1,0,3] 0
c[1,0,4] 0
c[1,0,5] 0
c[1,0,6] 0
c[1,0,7] 0
c[1,0,8] 0
c[1,0,9] 0
c[1,0,10] 0
c[1,0,11] 0
c[1,0,12] 0
c[1,0,13] 0
c[1,0,14] 0
c[1,0,15] 0
c[1,0,16] 0
c[1,0,17] 0
c[1,0,18] 0
c[1,0,19] 0
c[1,0,20] 0
c[1,0,21] 0
c[1,0,22] 1
c[1,0,23] 0
c[1,0,24] 0
c[1,1,0] 0
c[1,1,1] 0
c[1,1,2] 0
c[1,1,3] 0
c[1,1,4] 0
c[1,1,5] 0
c[1,1,6] 0
c[1,1,7] 0
c[1,1,8] 0
c[1,1,9] 0
c[1,1,10] 0
c[1,1,11] 0
c[1,1,12] 0
c[1,1,13] 0
c[1,1,14] 0
c[1,1,15] 0
c[1,1,16] 0
c[1,1,17] 0
c[1,1,18] 0
c[1,1,19] 0
c[1,1,20] 0
c[1,1,21] 0
c[1,1,22] 0
c[1,1,23] 0
c[1,1,24] 1
c[1,2,0] 0
c[1,2,1] 0
c[1,2,2] 0
c[1,2,3] 0
c[1,2,4] 0
c[1,2,5] 0
c[1,2,6] 0
c[1,2,7] 0
c[1,2,8] 0
c[1,2,9] 0
c[1,2,10] 0
c[1,2,11] 0
c[1,2,12] 0
c[1,2,13] 0
c[1,2,14] 0
c[1,2,15] 0
c[1,2,16] 0
c[1,2,17] 0
c[1,2,18] 0
c[1,2,19] 0
c[1,2,20] 0
c[1,2,21] 0
c[1,2,22] 1
c[1,2,23] 0
c[1,2,24] 0
c[1,3,0] 0
c[1,3,1] 0
c[1,3,2] 0
c[1,3,3] 0
c[1,3,4] 0
c[1,3,5] 0
c[1,3,6] 0
c[1,3,7] 0
c[1,3,8] 0
c[1,3,9] 0
c[1,3,10] 0
c[1,3,11] 0
c[1,3,12] 0
c[1,3,13] 0
c[1,3,14] 0
c[1,3,15] 0
c[1,3,16] 0
c[1,3,17] 0
c[1,3,18] 0
c[1,3,19] 0
c[1,3,20] 0
c[1,3,21] 0
c[1,3,22] 1
c[1,3,23] 0
c[1,3,24] 0
c[2,0,0] 0
c[2,0,1] 0
c[2,0,2] 0
c[2,0,3] 0
c[2,0,4] 0
c[2,0,5] 0
c[2,0,6] 0
c[2,0,7] 0
c[2,0,8] 0
c[2,0,9] 0
c[2,0,10] 0
c[2,0,11] 0
c[2,0,12] 1
c[2,0,13] 0
c[2,0,14] 0
c[2,0,15] 0
c[2,0,16] 0
c[2,0,17] 0
c[2,0,18] 0
c[2,0,19] 0
c[2,0,20] 0
c[2,0,21] 0
c[2,0,22] 0
c[2,0,23] 0
c[2,0,24] 0
c[2,1,0] 0
c[2,1,1] 0
c[2,1,2] 0
c[2,1,3] 0
c[2,1,4] 0
c[2,1,5] 0
c[2,1,6] 0
c[2,1,7] 0
c[2,1,8] 0
c[2,1,9] 0
c[2,1,10] 0
c[2,1,11] 0
c[2,1,12] 0
c[2,1,13] 0
c[2,1,14] 1
c[2,1,15] 0
c[2,1,16] 0
c[2,1,17] 0
c[2,1,18] 0
c[2,1,19] 0
c[2,1,20] 0
c[2,1,21] 0
c[2,1,22] 0
c[2,1,23] 0
c[2,1,24] 0
c[2,2,0] 0
c[2,2,1] 0
c[2,2,2] 0
c[2,2,3] 0
c[2,2,4] 0
c[2,2,5] 0
c[2,2,6] 0
c[2,2,7] 0
c[2,2,8] 0
c[2,2,9] 0
c[2,2,10] 0
c[2,2,11] 0
c[2,2,12] 1
c[2,2,13] 0
c[2,2,14] 0
c[2,2,15] 0
c[2,2,16] 0
c[2,2,17] 0
c[2,2,18] 0
c[2,2,19] 0
c[2,2,20] 0
c[2,2,21] 0
c[2,2,22] 0
c[2,2,23] 0
c[2,2,24] 0
c[2,3,0] 0
c[2,3,1] 0
c[2,3,2] 0
c[2,3,3] 0
c[2,3,4] 0
c[2,3,5] 0
c[2,3,6] 0
c[2,3,7] 0
c[2,3,8] 0
c[2,3,9] 0
c[2,3,10] 0
c[2,3,11] 0
c[2,3,12] 1
c[2,3,13] 0
c[2,3,14] 0
c[2,3,15] 0
c[2,3,16] 0
c[2,3,17] 0
c[2,3,18] 0
c[2,3,19] 0
c[2,3,20] 0
c[2,3,21] 0
c[2,3,22] 0
c[2,3,23] 0
c[2,3,24] 0
c[3,0,0] 0
c[3,0,1] 0
c[3,0,2] 0
c[3,0,3] 0
c[3,0,4] 0
c[3,0,5] 0
c[3,0,6] 0
c[3,0,7] 0
c[3,0,8] 0
c[3,0,9] 0
c[3,0,10] 0
c[3,0,11] 0
c[3,0,12] 1
c[3,0,13] 0
c[3,0,14] 0
c[3,0,15] 0
c[3,0,16] 0
c[3,0,17] 0
c[3,0,18] 0
c[3,0,19] 0
c[3,0,20] 0
c[3,0,21] 0
c[3,0,22] 0
c[3,0,23] 0
c[3,0,24] 0
c[3,1,0] 0
c[3,1,1] 0
c[3,1,2] 0
c[3,1,3] 0
c[3,1,4] 0
c[3,1,5] 0
c[3,1,6] 0
c[3,1,7] 0
c[3,1,8] 0
c[3,1,9] 0
c[3,1,10] 0
c[3,1,11] 0
c[3,1,12] 0
c[3,1,13] 0
c[3,1,14] 1
c[3,1,15] 0
c[3,1,16] 0
c[3,1,17] 0
c[3,1,18] 0
c[3,1,19] 0
c[3,1,20] 0
c[3,1,21] 0
c[3,1,22] 0
c[3,1,23] 0
c[3,1,24] 0
c[3,2,0] 0
c[3,2,1] 0
c[3,2,2] 0
c[3,2,3] 0
c[3,2,4] 0
c[3,2,5] 0
c[3,2,6] 0
c[3,2,7] 0
c[3,2,8] 0
c[3,2,9] 0
c[3,2,10] 0
c[3,2,11] 0
c[3,2,12] 1
c[3,2,13] 0
c[3,2,14] 0
c[3,2,15] 0
c[3,2,16] 0
c[3,2,17] 0
c[3,2,18] 0
c[3,2,19] 0
c[3,2,20] 0
c[3,2,21] 0
c[3,2,22] 0
c[3,2,23] 0
c[3,2,24] 0
c[3,3,0] 0
c[3,3,1] 0
c[3,3,2] 0
c[3,3,3] 0
c[3,3,4] 0
c[3,3,5] 0
c[3,3,6] 0
c[3,3,7] 0
c[3,3,8] 0
c[3,3,9] 0
c[3,3,10] 0
c[3,3,11] 0
c[3,3,12] 1
c[3,3,13] 0
c[3,3,14] 0
c[3,3,15] 0
c[3,3,16] 0
c[3,3,17] 0
c[3,3,18] 0
c[3,3,19] 0
c[3,3,20] 0
c[3,3,21] 0
c[3,3,22] 0
c[3,3,23] 0
c[3,3,24] 0
b[0,0,0] 0
b[0,0,1] 0
b[0,0,2] 0
b[0,0,3] 0
b[0,0,4] 0
b[0,0,5] 0
b[0,0,6] 0
b[0,0,7] 0
b[0,0,8] 0
b[0,0,9] 0
b[0,0,10] 0
b[0,0,11] 0
b[0,0,12] 0
b[0,0,13] 0
b[0,1,0] 0
b[0,1,1] 0
b[0,1,2] 0
b[0,1,3] 0
b[0,1,4] 0
b[0,1,5] 0
b[0,1,6] 0
b[0,1,7] 0
b[0,1,8] 0
b[0,1,9] 0
b[0,1,10] 0
b[0,1,11] 0
b[0,1,12] 0
b[0,1,13] 0
b[0,2,0] 0
b[0,2,1] 0
b[0,2,2] 0
b[0,2,3] 0
b[0,2,4] 0
b[0,2,5] 0
b[0,2,6] 0
b[0,2,7] 0
b[0,2,8] 0
b[0,2,9] 0
b[0,2,10] 0
b[0,2,11] 0
b[0,2,12] 0
b[0,2,13] 0
b[0,3,0] 0
b[0,3,1] 0
b[0,3,2] 0
b[0,3,3] 0
b[0,3,4] 0
b[0,3,5] 0
b[0,3,6] 0
b[0,3,7] 0
b[0,3,8] 0
b[0,3,9] 0
b[0,3,10] 0
b[0,3,11] 0
b[0,3,12] 0
b[0,3,13] 0
b[1,0,0] 0
b[1,0,1] 0
b[1,0,2] 0
b[1,0,3] 0
b[1,0,4] 0
b[1,0,5] 0
b[1,0,6] 0
b[1,0,7] 0
b[1,0,8] 0
b[1,0,9] 0
b[1,0,10] 0
b[1,0,11] 0
b[1,0,12] 0
b[1,0,13] 0
b[1,1,0] 0
b[1,1,1] 0
b[1,1,2] 0
b[1,1,3] 0
b[1,1,4] 0
b[1,1,5] 0
b[1,1,6] 0
b[1,1,7] 0
b[1,1,8] 0
b[1,1,9] 0
b[1,1,10] 0
b[1,1,11] 0
b[1,1,12] 0
b[1,1,13] 0
b[1,2,0] 0
b[1,2,1] 0
b[1,2,2] 0
b[1,2,3] 0
b[1,2,4] 0
b[1,2,5] 0
b[1,2,6] 0
b[1,2,7] 0
b[1,2,8] 0
b[1,2,9] 0
b[1,2,10] 0
b[1,2,11] 0
b[1,2,12] 0
b[1,2,13] 0
b[1,3,0] 0
b[1,3,1] 0
b[1,3,2] 0
b[1,3,3] 0
b[1,3,4] 0
b[1,3,5] 0
b[1,3,6] 0
b[1,3,7] 0
b[1,3,8] 0
b[1,3,9] 0
b[1,3,10] 0
b[1,3,11] 0
b[1,3,12] 0
b[1,3,13] 0
b[2,0,0] 0
b[2,0,1] 0
b[2,0,2] 0
b[2,0,3] 0
b[2,0,4] 0
b[2,0,5] 0
b[2,0,6] 0
b[2,0,7] 0
b[2,0,8] 0
b[2,0,9] 0
b[2,0,10] 0
b[2,0,11] 0
b[2,0,12] 0
b[2,0,13] 0
b[2,1,0] 0
b[2,1,1] 0
b[2,1,2] 0
b[2,1,3] 0
b[2,1,4] 0
b[2,1,5] 0
b[2,1,6] 0
b[2,1,7] 0
b[2,1,8] 0
b[2,1,9] 0
b[2,1,10] 0
b[2,1,11] 0
b[2,1,12] 0
b[2,1,13] 0
b[2,2,0] 0
b[2,2,1] 0
b[2,2,2] 0
b[2,2,3] 0
b[2,2,4] 0
b[2,2,5] 0
b[2,2,6] 0
b[2,2,7] 0
b[2,2,8] 0
b[2,2,9] 0
b[2,2,10] 0
b[2,2,11] 0
b[2,2,12] 0
b[2,2,13] 0
b[2,3,0] 0
b[2,3,1] 0
b[2,3,2] 0
b[2,3,3] 0
b[2,3,4] 0
b[2,3,5] 0
b[2,3,6] 0
b[2,3,7] 0
b[2,3,8] 0
b[2,3,9] 0
b[2,3,10] 0
b[2,3,11] 0
b[2,3,12] 0
b[2,3,13] 0
b[3,0,0] 0
b[3,0,1] 0
b[3,0,2] 0
b[3,0,3] 0
b[3,0,4] 0
b[3,0,5] 0
b[3,0,6] 0
b[3,0,7] 0
b[3,0,8] 0
b[3,0,9] 0
b[3,0,10] 0
b[3,0,11] 0
b[3,0,12] 0
b[3,0,13] 0
b[3,1,0] 0
b[3,1,1] 0
b[3,1,2] 0
b[3,1,3] 0
b[3,1,4] 0
b[3,1,5] 0
b[3,1,6] 0
b[3,1,7] 0
b[3,1,8] 0
b[3,1,9] 0
b[3,1,10] 0
b[3,1,11] 0
b[3,1,12] 0
b[3,1,13] 0
b[3,2,0] 0
b[3,2,1] 0
b[3,2,2] 0
b[3,2,3] 0
b[3,2,4] 0
b[3,2,5] 0
b[3,2,6] 0
b[3,2,7] 0
b[3,2,8] 0
b[3,2,9] 0
b[3,2,10] 0
b[3,2,11] 0
b[3,2,12] 0
b[3,2,13] 0
b[3,3,0] 0
b[3,3,1] 0
b[3,3,2] 0
b[3,3,3] 0
b[3,3,4] 0
b[3,3,5] 0
b[3,3,6] 0
b[3,3,7] 0
b[3,3,8] 0
b[3,3,9] 0
b[3,3,10] 0
b[3,3,11] 0
b[3,3,12] 0
b[3,3,13] 0
sp[0,0] 4.9999999999999989e-01
sp[0,1] 3.5355339059327345e-01
sp[0,2] 4.9999999999999989e-01
sp[0,3] 4.9999999999999989e-01
sp[1,0] 3.5355339059327345e-01
sp[1,1] 0.25
sp[1,2] 3.5355339059327373e-01
sp[1,3] 3.5355339059327373e-01
sp[2,0] 4.9999999999999989e-01
sp[2,1] 3.5355339059327373e-01
sp[2,2] 0.5
sp[2,3] 4.9999999999999989e-01
sp[3,0] 4.9999999999999989e-01
sp[3,1] 3.5355339059327373e-01
sp[3,2] 4.9999999999999989e-01
sp[3,3] 0.5
d_plus[0] 2
d_plus[1] 4
d_plus[2] 2
d_plus[3] 2
p[0,0] 12
p[0,1] 14
p[0,2] 12
p[0,3] 12
p[1,0] 22
p[1,1] 24
p[1,2] 22
p[1,3] 22
p[2,0] 12
p[2,1] 14
p[2,2] 12
p[2,3] 12
p[3,0] 12
p[3,1] 14
p[3,2] 12
p[3,3] 12
t[0,0] 4.9999999999999989e-01
t[0,1] 3.5355339059327345e-01
t[0,2] 0
t[0,3] 0
t[1,0] 3.5355339059327345e-01
t[1,1] 0.25
t[1,2] 3.5355339059326818e-01
t[1,3] 3.5355339059325924e-01
t[2,0] 0
t[2,1] 3.5355339059326762e-01
t[2,2] 0.5
t[2,3] 0
t[3,0] 0
t[3,1] 3.5355339059325874e-01
t[3,2] 0
t[3,3] 0.5
h_prime[0,0] 2.3932078276556343e-01
h_prime[0,1] 2.9140669517594864e-02
h_prime[0,2] 0
h_prime[0,3] 6.9647345191348586e-01
h_prime[0,4] 4.5942035446212515e-01
h_prime[0,5] 0
h_prime[0,6] 0
h_prime[0,7] 0
h_prime[0,8] 7.4785630363003452e-02
h_prime[0,9] 0
h_prime[0,10] 0
h_prime[0,11] 0
h_prime[0,12] 0
h_prime[0,13] 1.8954252937025451e-01
h_prime[0,14] 0
h_prime[0,15] 4.2149282235083962e-01
h_prime[0,16] 0
h_prime[0,17] 2.5080599463003272e-01
h_prime[0,18] 4.6872925605780730e-01
h_prime[0,19] 0
h_prime[0,20] 3.3567379981080991e-01
h_prime[0,21] 3.4657132813910363e-01
h_prime[0,22] 3.1857607677792643e-01
h_prime[0,23] 2.5416147474035888e-01
h_prime[0,24] 4.8050207432635550e-01
h_prime[0,25] 0
h_prime[0,26] 0
h_prime[0,27] 0
h_prime[0,28] 1.2571776135469781e-01
h_prime[0,29] 2.5683850988868562e-01
h_prime[0,30] 4.3535281274509074e-01
h_prime[0,31] 4.1680531624789996e-01
h_prime[1,0] 3.4156080200799166e-01
h_prime[1,1] 3.8501120410584067e-02
h_prime[1,2] 0
h_prime[1,3] 9.9401984603738858e-01
h_prime[1,4] 6.5955643214415727e-01
h_prime[1,5] 0
h_prime[1,6] 0
h_prime[1,7] 0
h_prime[1,8] 1.0626526881223591e-01
h_prime[1,9] 0
h_prime[1,10] 0
h_prime[1,11] 0
h_prime[1,12] 0
h_prime[1,13] 2.7433355117015534e-01
h_prime[1,14] 0
h_prime[1,15] 6.0036368741152690e-01
h_prime[1,16] 0
h_prime[1,17] 3.5613794810505478e-01
h_prime[1,18] 6.6788210680258131e-01
h_prime[1,19] 0
h_prime[1,20] 4.7986924952495974e-01
h_prime[1,21] 4.9486448496124458e-01
h_prime[1,22] 4.5305099301547008e-01
h_prime[1,23] 3.6667747019394170e-01
h_prime[1,24] 0.687319883959002
h_prime[1,25] 0
h_prime[1,26] 0
h_prime[1,27] 0
h_prime[1,28] 1.7810615544687386e-01
h_prime[1,29] 3.6814791041767281e-01
h_prime[1,30] 6.2220019444522667e-01
h_prime[1,31] 5.9357290217182579e-01
h_prime[2,0] 2.3932078276582891e-01
h_prime[2,1] 0.0291406695182167
h_prime[2,2] 0
h_prime[2,3] 6.9647345188177268e-01
h_prime[2,4] 4.5942035445267870e-01
h_prime[2,5] 0
h_prime[2,6] 0
h_prime[2,7] 0
h_prime[2,8] 7.4785630364273936e-02
h_prime[2,9] 0
h_prime[2,10] 0
h_prime[2,11] 0
h_prime[2,12] 0
h_prime[2,13] 1.8954252937123961e-01
h_prime[2,14] 0
h_prime[2,15] 4.2149282235196311e-01
h_prime[2,16] 0
h_prime[2,17] 2.5080599463006514e-01
h_prime[2,18] 4.6872925605491855e-01
h_prime[2,19] 0
h_prime[2,20] 3.3567379980719991e-01
h_prime[2,21] 3.4657132809782010e-01
h_prime[2,22] 3.1857607677711286e-01
h_prime[2,23] 2.5416147473984907e-01
h_prime[2,24] 4.8050207426561586e-01
h_prime[2,25] 0
h_prime[2,26] 0
h_prime[2,27] 0
h_prime[2,28] 1.2571776135554072e-01
h_prime[2,29] 2.5683850988903473e-01
h_prime[2,30] 0.435352812746245
h_prime[2,31] 4.1680531623277861e-01
h_prime[3,0] 2.3932078276588123e-01
h_prime[3,1] 2.9140669518137763e-02
h_prime[3,2] 0
h_prime[3,3] 6.9647345188182552e-01
h_prime[3,4] 4.5942035445274770e-01
h_prime[3,5] 0
h_prime[3,6] 0
h_prime[3,7] 0
h_prime[3,8] 7.4785630364183064e-02
h_prime[3,9] 0
h_prime[3,10] 0
h_prime[3,11] 0
h_prime[3,12] 0
h_prime[3,13] 1.8954252937125984e-01
h_prime[3,14] 0
h_prime[3,15] 4.2149282235185442e-01
h_prime[3,16] 0
h_prime[3,17] 2.5080599463013975e-01
h_prime[3,18] 4.6872925605490962e-01
h_prime[3,19] 0
h_prime[3,20] 3.3567379980726547e-01
h_prime[3,21] 3.4657132809785829e-01
h_prime[3,22] 3.1857607677723365e-01
h_prime[3,23] 2.5416147473988993e-01
h_prime[3,24] 4.8050207426576219e-01
h_prime[3,25] 0
h_prime[3,26] 0
h_prime[3,27] 0
h_prime[3,28] 1.2571776135549897e-01
h_prime[3,29] 2.5683850988893692e-01
h_prime[3,30] 4.3535281274616927e-01
h_prime[3,31] 4.1680531623285777e-01
x_0_0_0_GCN 5.2013894034746011e-01
s_0_0_0_GCN 0
z_0_0_0_GCN 1
x_0_0_1_GCN 0.584370299584051
s_0_0_1_GCN 0
z_0_0_1_GCN 1
x_0_0_2_GCN 0
s_0_0_2_GCN 5.4215438217865938e-02
z_0_0_2_GCN 0
x_0_0_3_GCN 7.9227611055736613e-03
s_0_0_3_GCN 0
z_0_0_3_GCN 1
x_0_0_4_GCN 0
s_0_0_4_GCN 2.5294626165845796e-01
z_0_0_4_GCN 0
x_0_0_5_GCN 6.7757590851057337e-01
s_0_0_5_GCN 0
z_0_0_5_GCN 1
x_0_0_6_GCN 0
s_0_0_6_GCN 2.7264293058782846e-01
z_0_0_6_GCN 0
x_0_0_7_GCN 0
s_0_0_7_GCN 3.5937701585949222e-01
z_0_0_7_GCN 0
x_0_0_8_GCN 0
s_0_0_8_GCN 0.719119020355534
z_0_0_8_GCN 0
x_0_0_9_GCN 1.6807506187598875e-01
s_0_0_9_GCN 0
z_0_0_9_GCN 1
x_0_0_10_GCN 0
s_0_0_10_GCN 6.9754065121795814e-02
z_0_0_10_GCN 0
x_0_0_11_GCN 9.5615378676233487e-02
s_0_0_11_GCN 0
z_0_0_11_GCN 1
x_0_0_12_GCN 0
s_0_0_12_GCN 1.8449223529647218e-01
z_0_0_12_GCN 0
x_0_0_13_GCN 9.4228160646387060e-02
s_0_0_13_GCN 0
z_0_0_13_GCN 1
x_0_0_14_GCN 0
s_0_0_14_GCN 3.0581850171471742e-01
z_0_0_14_GCN 0
x_0_0_15_GCN 0
s_0_0_15_GCN 0.237369840320303
z_0_0_15_GCN 0
x_0_1_0_GCN 0.939377719926915
s_0_1_0_GCN 0
z_0_1_0_GCN 1
x_0_1_1_GCN 9.6013758797761839e-01
s_0_1_1_GCN 0
z_0_1_1_GCN 1
x_0_1_2_GCN 0
s_0_1_2_GCN 1.2619549290328932e-01
z_0_1_2_GCN 0
x_0_1_3_GCN 0
s_0_1_3_GCN 1.6933070115816756e-01
z_0_1_3_GCN 0
x_0_1_4_GCN 0
s_0_1_4_GCN 1.4581505427403235e-01
z_0_1_4_GCN 0
x_0_1_5_GCN 1.1053629104874085e+00
s_0_1_5_GCN 0
z_0_1_5_GCN 1
x_0_1_6_GCN 0
s_0_1_6_GCN 5.0085397193452208e-01
z_0_1_6_GCN 0
x_0_1_7_GCN 0
s_0_1_7_GCN 9.6865580662513351e-01
z_0_1_7_GCN 0
x_0_1_8_GCN 0
s_0_1_8_GCN 1.0925110934968252e+00
z_0_1_8_GCN 0
x_0_1_9_GCN 2.3272850663697464e-01
s_0_1_9_GCN 0
z_0_1_9_GCN 1
x_0_1_10_GCN 0
s_0_1_10_GCN 1.1839380672917682e-01
z_0_1_10_GCN 0
x_0_1_11_GCN 1.5739433898949429e-01
s_0_1_11_GCN 0
z_0_1_11_GCN 1
x_0_1_12_GCN 0
s_0_1_12_GCN 2.2292949457449010e-01
z_0_1_12_GCN 0
x_0_1_13_GCN 2.3475832887571846e-01
s_0_1_13_GCN 0
z_0_1_13_GCN 1
x_0_1_14_GCN 0
s_0_1_14_GCN 4.6263693921001153e-01
z_0_1_14_GCN 0
x_0_1_15_GCN 0
s_0_1_15_GCN 4.3536789230908118e-01
z_0_1_15_GCN 0
x_0_2_0_GCN 5.2013894034749786e-01
s_0_2_0_GCN 0
z_0_2_0_GCN 1
x_0_2_1_GCN 5.8437029958409870e-01
s_0_2_1_GCN 0
z_0_2_1_GCN 1
x_0_2_2_GCN 0
s_0_2_2_GCN 5.4215438217867229e-02
z_0_2_2_GCN 0
x_0_2_3_GCN 7.9227611055927571e-03
s_0_2_3_GCN 0
z_0_2_3_GCN 1
x_0_2_4_GCN 0
s_0_2_4_GCN 2.5294626165845313e-01
z_0_2_4_GCN 0
x_0_2_5_GCN 6.7757590851054483e-01
s_0_2_5_GCN 0
z_0_2_5_GCN 1
x_0_2_6_GCN 0
s_0_2_6_GCN 0.272642930587828
z_0_2_6_GCN 0
x_0_2_7_GCN 0
s_0_2_7_GCN 3.5937701585949394e-01
z_0_2_7_GCN 0
x_0_2_8_GCN 0
s_0_2_8_GCN 0.719119020355528
z_0_2_8_GCN 0
x_0_2_9_GCN 1.6807506187600163e-01
s_0_2_9_GCN 0
z_0_2_9_GCN 1
x_0_2_10_GCN 0
s_0_2_10_GCN 0.0697540651217958
z_0_2_10_GCN 0
x_0_2_11_GCN 9.5615378676241675e-02
s_0_2_11_GCN 0
z_0_2_11_GCN 1
x_0_2_12_GCN 0
s_0_2_12_GCN 1.8449223529647044e-01
z_0_2_12_GCN 0
x_0_2_13_GCN 9.4228160646411818e-02
s_0_2_13_GCN 0
z_0_2_13_GCN 1
x_0_2_14_GCN 0
s_0_2_14_GCN 3.0581850171471470e-01
z_0_2_14_GCN 0
x_0_2_15_GCN 0
s_0_2_15_GCN 2.3736984032030167e-01
z_0_2_15_GCN 0
x_0_3_0_GCN 5.2013894034749342e-01
s_0_3_0_GCN 0
z_0_3_0_GCN 1
x_0_3_1_GCN 5.8437029958409115e-01
s_0_3_1_GCN 0
z_0_3_1_GCN 1
x_0_3_2_GCN 0
s_0_3_2_GCN 5.4215438217866285e-02
z_0_3_2_GCN 0
x_0_3_3_GCN 7.9227611055945335e-03
s_0_3_3_GCN 0
z_0_3_3_GCN 1
x_0_3_4_GCN 0
s_0_3_4_GCN 2.5294626165844636e-01
z_0_3_4_GCN 0
x_0_3_5_GCN 0.677575908510534
s_0_3_5_GCN 0
z_0_3_5_GCN 1
x_0_3_6_GCN 0
s_0_3_6_GCN 2.7264293058782624e-01
z_0_3_6_GCN 0
x_0_3_7_GCN 0
s_0_3_7_GCN 3.5937701585949849e-01
z_0_3_7_GCN 0
x_0_3_8_GCN 0
s_0_3_8_GCN 7.1911902035552122e-01
z_0_3_8_GCN 0
x_0_3_9_GCN 1.6807506187600030e-01
s_0_3_9_GCN 0
z_0_3_9_GCN 1
x_0_3_10_GCN 0
s_0_3_10_GCN 6.9754065121794911e-02
z_0_3_10_GCN 0
x_0_3_11_GCN 9.5615378676239482e-02
s_0_3_11_GCN 0
z_0_3_11_GCN 1
x_0_3_12_GCN 0
s_0_3_12_GCN 1.8449223529646724e-01
z_0_3_12_GCN 0
x_0_3_13_GCN 0.0942281606464177
s_0_3_13_GCN 0
z_0_3_13_GCN 1
x_0_3_14_GCN 0
s_0_3_14_GCN 3.0581850171471187e-01
z_0_3_14_GCN 0
x_0_3_15_GCN 0
s_0_3_15_GCN 2.3736984032030106e-01
z_0_3_15_GCN 0
x_1_0_0_GCN 2.3134401825805317e-01
s_1_0_0_GCN 2.4905771889294215e-13
z_1_0_0_GCN 1
x_1_0_1_GCN 0.0636297018409316
s_1_0_1_GCN -3.6742570791448159e-13
z_1_0_1_GCN 1
x_1_0_2_GCN 4.2604979367655282e-03
s_1_0_2_GCN -3.1684377344021186e-13
z_1_0_2_GCN 1
x_1_0_3_GCN 3.9520908696117879e-01
s_1_0_3_GCN -3.0094763486809839e-13
z_1_0_3_GCN 1
x_1_0_4_GCN 5.8616527174875088e-02
s_1_0_4_GCN -3.2218108389492350e-13
z_1_0_4_GCN 1
x_1_0_5_GCN 7.4043618585050031e-01
s_1_0_5_GCN -2.7051971773772721e-13
z_1_0_5_GCN 1
x_1_0_6_GCN 0
s_1_0_6_GCN 2.4785436972122668e-01
z_1_0_6_GCN 0
x_1_0_7_GCN 3.1168615805109090e-01
s_1_0_7_GCN -2.8962943154908771e-13
z_1_0_7_GCN 1
x_1_0_8_GCN 5.5852217791800489e-02
s_1_0_8_GCN 2.2607957173015336e-13
z_1_0_8_GCN 1
x_1_0_9_GCN 0
s_1_0_9_GCN 8.4242091306161830e-03
z_1_0_9_GCN 0
x_1_0_10_GCN 3.7009265198332281e-01
s_1_0_10_GCN 2.8828328613172971e-13
z_1_0_10_GCN 1
x_1_0_11_GCN 0
s_1_0_11_GCN 4.2494640180107873e-02
z_1_0_11_GCN 0
x_1_0_12_GCN 5.0126294146877237e-01
s_1_0_12_GCN -1.7276458041948217e-13
z_1_0_12_GCN 1
x_1_0_13_GCN 8.4913637383707025e-02
s_1_0_13_GCN -3.37101874192669e-13
z_1_0_13_GCN 1
x_1_0_14_GCN 9.5420044252479519e-02
s_1_0_14_GCN -2.3522850334245504e-13
z_1_0_14_GCN 1
x_1_0_15_GCN 3.6208539111833660e-01
s_1_0_15_GCN -4.1359624058934230e-13
z_1_0_15_GCN 1
x_1_1_0_GCN 3.2579215978042142e-01
s_1_1_0_GCN 4.5778138224594755e-13
z_1_1_0_GCN 1
x_1_1_1_GCN 8.2350927714433045e-02
s_1_1_1_GCN -6.1282619603919564e-13
z_1_1_1_GCN 1
x_1_1_2_GCN 1.9826584515598267e-02
s_1_1_2_GCN -5.7418132748399131e-13
z_1_1_2_GCN 1
x_1_1_3_GCN 5.2846265918481450e-01
s_1_1_3_GCN -5.3184388316973585e-13
z_1_1_3_GCN 1
x_1_1_4_GCN 8.7935907519024789e-02
s_1_1_4_GCN 5.7258798397130661e-13
z_1_1_4_GCN 1
x_1_1_5_GCN 9.9780332563893770e-01
s_1_1_5_GCN -4.6273054832290939e-13
z_1_1_5_GCN 1
x_1_1_6_GCN 0
s_1_1_6_GCN 3.3298933855349827e-01
z_1_1_6_GCN 0
x_1_1_7_GCN 4.1026154543192539e-01
s_1_1_7_GCN -5.2954515772363209e-13
z_1_1_7_GCN 1
x_1_1_8_GCN 6.7496503333294725e-02
s_1_1_8_GCN 4.2945855205367423e-13
z_1_1_8_GCN 1
x_1_1_9_GCN 0
s_1_1_9_GCN 6.4652991253666570e-03
z_1_1_9_GCN 0
x_1_1_10_GCN 5.1716403897306062e-01
s_1_1_10_GCN 5.1709157788959459e-13
z_1_1_10_GCN 1
x_1_1_11_GCN 0
s_1_1_11_GCN 5.0931853718691827e-02
z_1_1_11_GCN 0
x_1_1_12_GCN 6.8592726777408286e-01
s_1_1_12_GCN -3.4016669689385104e-13
z_1_1_12_GCN 1
x_1_1_13_GCN 1.1484717148672610e-01
s_1_1_13_GCN -6.3055984045323754e-13
z_1_1_13_GCN 1
x_1_1_14_GCN 1.3769860015378857e-01
s_1_1_14_GCN -4.3508252556279103e-13
z_1_1_14_GCN 1
x_1_1_15_GCN 4.9097137114524175e-01
s_1_1_15_GCN -7.2004381623802516e-13
z_1_1_15_GCN 1
x_1_2_0_GCN 2.3134401825748738e-01
s_1_2_0_GCN -3.1838594261035524e-13
z_1_2_0_GCN 1
x_1_2_1_GCN 6.3629701841617425e-02
s_1_2_1_GCN 3.1512639719899482e-13
z_1_2_1_GCN 1
x_1_2_2_GCN 4.2604979367442120e-03
s_1_2_2_GCN -3.2156222129486878e-13
z_1_2_2_GCN 1
x_1_2_3_GCN 3.9520908696168733e-01
s_1_2_3_GCN 2.1685908277446764e-13
z_1_2_3_GCN 1
x_1_2_4_GCN 5.8616527174929677e-02
s_1_2_4_GCN -2.6902373558013171e-13
z_1_2_4_GCN 1
x_1_2_5_GCN 7.4043618585107085e-01
s_1_2_5_GCN 2.8779756355845620e-13
z_1_2_5_GCN 1
x_1_2_6_GCN 0
s_1_2_6_GCN 2.4785436972123029e-01
z_1_2_6_GCN 0
x_1_2_7_GCN 3.1168615805158167e-01
s_1_2_7_GCN 1.9153428842955122e-13
z_1_2_7_GCN 1
x_1_2_8_GCN 5.5852217791189804e-02
s_1_2_8_GCN -3.6751851562044635e-13
z_1_2_8_GCN 1
x_1_2_9_GCN 0
s_1_2_9_GCN 8.4242091306329057e-03
z_1_2_9_GCN 0
x_1_2_10_GCN 3.7009265198266283e-01
s_1_2_10_GCN -3.6247740919925775e-13
z_1_2_10_GCN 1
x_1_2_11_GCN 0
s_1_2_11_GCN 4.2494640180105327e-02
z_1_2_11_GCN 0
x_1_2_12_GCN 5.0126294146916028e-01
s_1_2_12_GCN 2.1451547135842297e-13
z_1_2_12_GCN 1
x_1_2_13_GCN 0.0849136373842958
s_1_2_13_GCN 2.48619701215258e-13
z_1_2_13_GCN 1
x_1_2_14_GCN 0.0954200442529822
s_1_2_14_GCN 2.7914129341333194e-13
z_1_2_14_GCN 1
x_1_2_15_GCN 3.6208539111901061e-01
s_1_2_15_GCN 2.66196786835593e-13
z_1_2_15_GCN 1
x_1_3_0_GCN 2.3134401825747777e-01
s_1_3_0_GCN -3.2249550252494430e-13
z_1_3_0_GCN 1
x_1_3_1_GCN 6.3629701841628972e-02
s_1_3_1_GCN 3.2761900831124180e-13
z_1_3_1_GCN 1
x_1_3_2_GCN 4.2604979367579787e-03
s_1_3_2_GCN -3.0610930457086738e-13
z_1_3_2_GCN 1
x_1_3_3_GCN 3.9520908696167784e-01
s_1_3_3_GCN 2.1547954393019708e-13
z_1_3_3_GCN 1
x_1_3_4_GCN 5.8616527174954261e-02
s_1_3_4_GCN -2.4322709644974960e-13
z_1_3_4_GCN 1
x_1_3_5_GCN 7.4043618585105553e-01
s_1_3_5_GCN 2.85417522949416e-13
z_1_3_5_GCN 1
x_1_3_6_GCN 0
s_1_3_6_GCN 2.4785436972122685e-01
z_1_3_6_GCN 0
x_1_3_7_GCN 3.1168615805157318e-01
s_1_3_7_GCN 1.8754615915828055e-13
z_1_3_7_GCN 1
x_1_3_8_GCN 5.5852217791224637e-02
s_1_3_8_GCN -3.3164096469029403e-13
z_1_3_8_GCN 1
x_1_3_9_GCN 0
s_1_3_9_GCN 8.4242091306336742e-03
z_1_3_9_GCN 0
x_1_3_10_GCN 3.7009265198267849e-01
s_1_3_10_GCN -3.3806811516878810e-13
z_1_3_10_GCN 1
x_1_3_11_GCN 0
s_1_3_11_GCN 4.2494640180104647e-02
z_1_3_11_GCN 0
x_1_3_12_GCN 5.0126294146913264e-01
s_1_3_12_GCN 1.9689068084249861e-13
z_1_3_12_GCN 1
x_1_3_13_GCN 8.4913637384261165e-02
s_1_3_13_GCN 2.1566342461865062e-13
z_1_3_13_GCN 1
x_1_3_14_GCN 9.5420044252981048e-02
s_1_3_14_GCN 2.8172256194558543e-13
z_1_3_14_GCN 1
x_1_3_15_GCN 3.6208539111900867e-01
s_1_3_15_GCN 2.7193872154107623e-13
z_1_3_15_GCN 1
x_2_0_0_GCN 0
s_2_0_0_GCN 0
z_2_0_0_GCN 1
x_2_0_1_GCN 0
s_2_0_1_GCN 0
z_2_0_1_GCN 1
x_2_0_2_GCN 0
s_2_0_2_GCN 4.1113404408153764e-01
z_2_0_2_GCN 0
x_2_0_3_GCN 0
s_2_0_3_GCN 0
z_2_0_3_GCN 1
x_2_0_4_GCN 0
s_2_0_4_GCN 0
z_2_0_4_GCN 1
x_2_0_5_GCN 0
s_2_0_5_GCN 7.3644870615622082e-02
z_2_0_5_GCN 0
x_2_0_6_GCN 0
s_2_0_6_GCN 1.4831436568743382e-02
z_2_0_6_GCN 0
x_2_0_7_GCN 0
s_2_0_7_GCN 7.5806404984483183e-02
z_2_0_7_GCN 0
x_2_0_8_GCN 0
s_2_0_8_GCN 0
z_2_0_8_GCN 1
x_2_0_9_GCN 0
s_2_0_9_GCN 1.5327357516521714e-01
z_2_0_9_GCN 0
x_2_0_10_GCN 0
s_2_0_10_GCN 4.1212511987774347e-01
z_2_0_10_GCN 0
x_2_0_11_GCN 0
s_2_0_11_GCN 1.3809959228922858e-01
z_2_0_11_GCN 0
x_2_0_12_GCN 0
s_2_0_12_GCN 2.2936901509097363e-01
z_2_0_12_GCN 0
x_2_0_13_GCN 0
s_2_0_13_GCN 0
z_2_0_13_GCN 1
x_2_0_14_GCN 0
s_2_0_14_GCN 1.1798847421283128e-01
z_2_0_14_GCN 0
x_2_0_15_GCN 0
s_2_0_15_GCN 0
z_2_0_15_GCN 1
x_2_0_16_GCN 0
s_2_0_16_GCN 3.1239474328604192e-02
z_2_0_16_GCN 0
x_2_0_17_GCN 0
s_2_0_17_GCN 0
z_2_0_17_GCN 1
x_2_0_18_GCN 0
s_2_0_18_GCN 0
z_2_0_18_GCN 1
x_2_0_19_GCN 0
s_2_0_19_GCN 3.5389394931745488e-01
z_2_0_19_GCN 0
x_2_0_20_GCN 0
s_2_0_20_GCN 0
z_2_0_20_GCN 1
x_2_0_21_GCN 0
s_2_0_21_GCN 0
z_2_0_21_GCN 1
x_2_0_22_GCN 0
s_2_0_22_GCN 0
z_2_0_22_GCN 1
x_2_0_23_GCN 0
s_2_0_23_GCN 0
z_2_0_23_GCN 1
x_2_0_24_GCN 0
s_2_0_24_GCN 0
z_2_0_24_GCN 1
x_2_0_25_GCN 0
s_2_0_25_GCN 1.9924480970941677e-01
z_2_0_25_GCN 0
x_2_0_26_GCN 0
s_2_0_26_GCN 2.3767977139613164e-02
z_2_0_26_GCN 0
x_2_0_27_GCN 0
s_2_0_27_GCN 1.1245005857943678e-01
z_2_0_27_GCN 0
x_2_0_28_GCN 0
s_2_0_28_GCN 0
z_2_0_28_GCN 1
x_2_0_29_GCN 0
s_2_0_29_GCN 0
z_2_0_29_GCN 1
x_2_0_30_GCN 0
s_2_0_30_GCN 0
z_2_0_30_GCN 1
x_2_0_31_GCN 0
s_2_0_31_GCN 0
z_2_0_31_GCN 1
x_2_1_0_GCN 0
s_2_1_0_GCN 0
z_2_1_0_GCN 1
x_2_1_1_GCN 0
s_2_1_1_GCN -7.42394166974858e-12
z_2_1_1_GCN 1
x_2_1_2_GCN 0
s_2_1_2_GCN 5.8703147022663515e-01
z_2_1_2_GCN 0
x_2_1_3_GCN 0
s_2_1_3_GCN 7.5857931047806915e-12
z_2_1_3_GCN 1
x_2_1_4_GCN 0
s_2_1_4_GCN 6.2059801742009313e-12
z_2_1_4_GCN 1
x_2_1_5_GCN 0
s_2_1_5_GCN 1.0410274915505939e-01
z_2_1_5_GCN 0
x_2_1_6_GCN 0
s_2_1_6_GCN 2.1883789721920704e-02
z_2_1_6_GCN 0
x_2_1_7_GCN 0
s_2_1_7_GCN 1.0667435202624945e-01
z_2_1_7_GCN 0
x_2_1_8_GCN 0
s_2_1_8_GCN -6.9497463339729393e-12
z_2_1_8_GCN 1
x_2_1_9_GCN 0
s_2_1_9_GCN 2.1737686916300078e-01
z_2_1_9_GCN 0
x_2_1_10_GCN 0
s_2_1_10_GCN 5.8758992536822441e-01
z_2_1_10_GCN 0
x_2_1_11_GCN 0
s_2_1_11_GCN 1.9946450441439623e-01
z_2_1_11_GCN 0
x_2_1_12_GCN 0
s_2_1_12_GCN 3.2680359217787108e-01
z_2_1_12_GCN 0
x_2_1_13_GCN 0
s_2_1_13_GCN -6.5359107015439122e-12
z_2_1_13_GCN 1
x_2_1_14_GCN 0
s_2_1_14_GCN 1.6736224503792294e-01
z_2_1_14_GCN 0
x_2_1_15_GCN 0
s_2_1_15_GCN -6.9906346336634506e-12
z_2_1_15_GCN 1
x_2_1_16_GCN 0
s_2_1_16_GCN 4.6663549564603640e-02
z_2_1_16_GCN 0
x_2_1_17_GCN 0
s_2_1_17_GCN 8.58541709947147e-12
z_2_1_17_GCN 1
x_2_1_18_GCN 0
s_2_1_18_GCN 7.09238917595556e-12
z_2_1_18_GCN 1
x_2_1_19_GCN 0
s_2_1_19_GCN 5.0514118901581806e-01
z_2_1_19_GCN 0
x_2_1_20_GCN 0
s_2_1_20_GCN 6.7377006751634383e-12
z_2_1_20_GCN 1
x_2_1_21_GCN 0
s_2_1_21_GCN 9.6781679892465888e-12
z_2_1_21_GCN 1
x_2_1_22_GCN 0
s_2_1_22_GCN 8.11550826540497e-12
z_2_1_22_GCN 1
x_2_1_23_GCN 0
s_2_1_23_GCN 7.4708347147511844e-12
z_2_1_23_GCN 1
x_2_1_24_GCN 0
s_2_1_24_GCN 1.0087514157319788e-11
z_2_1_24_GCN 1
x_2_1_25_GCN 0
s_2_1_25_GCN 2.8572114180768710e-01
z_2_1_25_GCN 0
x_2_1_26_GCN 0
s_2_1_26_GCN 3.3777375753359914e-02
z_2_1_26_GCN 0
x_2_1_27_GCN 0
s_2_1_27_GCN 1.6369660287511859e-01
z_2_1_27_GCN 0
x_2_1_28_GCN 0
s_2_1_28_GCN -4.75337130767528e-12
z_2_1_28_GCN 1
x_2_1_29_GCN 0
s_2_1_29_GCN -5.4618323752642084e-12
z_2_1_29_GCN 1
x_2_1_30_GCN 0
s_2_1_30_GCN -4.5732861941871761e-12
z_2_1_30_GCN 1
x_2_1_31_GCN 0
s_2_1_31_GCN 8.29345619957067e-12
z_2_1_31_GCN 1
x_2_2_0_GCN 0
s_2_2_0_GCN 2.9430034798050286e-12
z_2_2_0_GCN 1
x_2_2_1_GCN 0
s_2_2_1_GCN -3.2762542678810291e-12
z_2_2_1_GCN 1
x_2_2_2_GCN 0
s_2_2_2_GCN 4.1113404408193049e-01
z_2_2_2_GCN 0
x_2_2_3_GCN 0
s_2_2_3_GCN 2.8703706078658797e-12
z_2_2_3_GCN 1
x_2_2_4_GCN 0
s_2_2_4_GCN 2.5085523935874932e-12
z_2_2_4_GCN 1
x_2_2_5_GCN 0
s_2_2_5_GCN 7.3644870611819638e-02
z_2_2_5_GCN 0
x_2_2_6_GCN 0
s_2_2_6_GCN 1.4831436571269792e-02
z_2_2_6_GCN 0
x_2_2_7_GCN 0
s_2_2_7_GCN 7.5806404981552555e-02
z_2_2_7_GCN 0
x_2_2_8_GCN 0
s_2_2_8_GCN -2.7795448234724240e-12
z_2_2_8_GCN 1
x_2_2_9_GCN 0
s_2_2_9_GCN 1.5327357515975987e-01
z_2_2_9_GCN 0
x_2_2_10_GCN 0
s_2_2_10_GCN 0.412125119875124
z_2_2_10_GCN 0
x_2_2_11_GCN 0
s_2_2_11_GCN 1.3809959229355664e-01
z_2_2_11_GCN 0
x_2_2_12_GCN 0
s_2_2_12_GCN 2.2936901508917679e-01
z_2_2_12_GCN 0
x_2_2_13_GCN 0
s_2_2_13_GCN -2.7597091278863672e-12
z_2_2_13_GCN 1
x_2_2_14_GCN 0
s_2_2_14_GCN 1.1798847421558348e-01
z_2_2_14_GCN 0
x_2_2_15_GCN 0
s_2_2_15_GCN -3.0213418572566653e-12
z_2_2_15_GCN 1
x_2_2_16_GCN 0
s_2_2_16_GCN 3.1239474324041991e-02
z_2_2_16_GCN 0
x_2_2_17_GCN 0
s_2_2_17_GCN 3.3916237873743427e-12
z_2_2_17_GCN 1
x_2_2_18_GCN 0
s_2_2_18_GCN 0
z_2_2_18_GCN 1
x_2_2_19_GCN 0
s_2_2_19_GCN 3.5389394931470469e-01
z_2_2_19_GCN 0
x_2_2_20_GCN 0
s_2_2_20_GCN 2.5695973127071170e-12
z_2_2_20_GCN 1
x_2_2_21_GCN 0
s_2_2_21_GCN 3.5225433681063123e-12
z_2_2_21_GCN 1
x_2_2_22_GCN 0
s_2_2_22_GCN 3.6434674721697036e-12
z_2_2_22_GCN 1
x_2_2_23_GCN 0
s_2_2_23_GCN 3.0591362776277720e-12
z_2_2_23_GCN 1
x_2_2_24_GCN 0
s_2_2_24_GCN 3.5392799802025365e-12
z_2_2_24_GCN 1
x_2_2_25_GCN 0
s_2_2_25_GCN 1.9924480971355205e-01
z_2_2_25_GCN 0
x_2_2_26_GCN 0
s_2_2_26_GCN 2.3767977139708865e-02
z_2_2_26_GCN 0
x_2_2_27_GCN 0
s_2_2_27_GCN 1.1245005858174868e-01
z_2_2_27_GCN 0
x_2_2_28_GCN 0
s_2_2_28_GCN -2.4795686337508727e-12
z_2_2_28_GCN 1
x_2_2_29_GCN 0
s_2_2_29_GCN -2.8744367996935694e-12
z_2_2_29_GCN 1
x_2_2_30_GCN 0
s_2_2_30_GCN -2.5688340343776872e-12
z_2_2_30_GCN 1
x_2_2_31_GCN 0
s_2_2_31_GCN 3.5798586317525860e-12
z_2_2_31_GCN 1
x_2_3_0_GCN 0
s_2_3_0_GCN 3.0062098643757196e-12
z_2_3_0_GCN 1
x_2_3_1_GCN 0
s_2_3_1_GCN -3.3645065899978732e-12
z_2_3_1_GCN 1
x_2_3_2_GCN 0
s_2_3_2_GCN 4.1113404408191451e-01
z_2_3_2_GCN 0
x_2_3_3_GCN 0
s_2_3_3_GCN 2.9396901579659129e-12
z_2_3_3_GCN 1
x_2_3_4_GCN 0
s_2_3_4_GCN 2.5896229605137933e-12
z_2_3_4_GCN 1
x_2_3_5_GCN 0
s_2_3_5_GCN 0.0736448706118216
z_2_3_5_GCN 0
x_2_3_6_GCN 0
s_2_3_6_GCN 1.4831436571270909e-02
z_2_3_6_GCN 0
x_2_3_7_GCN 0
s_2_3_7_GCN 7.5806404981551417e-02
z_2_3_7_GCN 0
x_2_3_8_GCN 0
s_2_3_8_GCN -2.8770449564397005e-12
z_2_3_8_GCN 1
x_2_3_9_GCN 0
s_2_3_9_GCN 1.5327357515976203e-01
z_2_3_9_GCN 0
x_2_3_10_GCN 0
s_2_3_10_GCN 4.1212511987512013e-01
z_2_3_10_GCN 0
x_2_3_11_GCN 0
s_2_3_11_GCN 1.3809959229353796e-01
z_2_3_11_GCN 0
x_2_3_12_GCN 0
s_2_3_12_GCN 2.2936901508918006e-01
z_2_3_12_GCN 0
x_2_3_13_GCN 0
s_2_3_13_GCN -2.7352703435568060e-12
z_2_3_13_GCN 1
x_2_3_14_GCN 0
s_2_3_14_GCN 1.1798847421559491e-01
z_2_3_14_GCN 0
x_2_3_15_GCN 0
s_2_3_15_GCN -3.1264053845792006e-12
z_2_3_15_GCN 1
x_2_3_16_GCN 0
s_2_3_16_GCN 3.1239474324033047e-02
z_2_3_16_GCN 0
x_2_3_17_GCN 0
s_2_3_17_GCN 3.4727325182171143e-12
z_2_3_17_GCN 1
x_2_3_18_GCN 0
s_2_3_18_GCN 0
z_2_3_18_GCN 1
x_2_3_19_GCN 0
s_2_3_19_GCN 3.5389394931469625e-01
z_2_3_19_GCN 0
x_2_3_20_GCN 0
s_2_3_20_GCN 2.6458141233476340e-12
z_2_3_20_GCN 1
x_2_3_21_GCN 0
s_2_3_21_GCN 3.5582370383480111e-12
z_2_3_21_GCN 1
x_2_3_22_GCN 0
s_2_3_22_GCN 3.7690996157468959e-12
z_2_3_22_GCN 1
x_2_3_23_GCN 0
s_2_3_23_GCN 3.1039303072244451e-12
z_2_3_23_GCN 1
x_2_3_24_GCN 0
s_2_3_24_GCN 3.69654307164069e-12
z_2_3_24_GCN 1
x_2_3_25_GCN 0
s_2_3_25_GCN 1.9924480971354019e-01
z_2_3_25_GCN 0
x_2_3_26_GCN 0
s_2_3_26_GCN 2.3767977139706652e-02
z_2_3_26_GCN 0
x_2_3_27_GCN 0
s_2_3_27_GCN 1.1245005858174394e-01
z_2_3_27_GCN 0
x_2_3_28_GCN 0
s_2_3_28_GCN -2.5059399000326721e-12
z_2_3_28_GCN 1
x_2_3_29_GCN 0
s_2_3_29_GCN -2.9700200632198914e-12
z_2_3_29_GCN 1
x_2_3_30_GCN 0
s_2_3_30_GCN -2.6368213168481702e-12
z_2_3_30_GCN 1
x_2_3_31_GCN 0
s_2_3_31_GCN 3.66889157943362e-12
z_2_3_31_GCN 1
h[0] 1.0595231503052651e+00
h[1] 1.2592312896453339e-01
h[2] 0
h[3] 3.0834402017144726e+00
h[4] 2.0378174955117090e+00
h[5] 0
h[6] 0
h[7] 0
h[8] 3.3062215990369637e-01
h[9] 0
h[10] 0
h[11] 0
h[12] 0
h[13] 8.4296113928290928e-01
h[14] 0
h[15] 1.8648421544661840e+00
h[16] 0
h[17] 1.1085559319952925e+00
h[18] 2.0740698749702169e+00
h[19] 0
h[20] 1.4868906489502349e+00
h[21] 1.5345784692960265e+00
h[22] 1.4087792233477430e+00
h[23] 1.1291618944140396e+00
h[24] 2.1288261068167356e+00
h[25] 0
h[26] 0
h[27] 0
h[28] 5.5525943951261136e-01
h[29] 1.13866344008433
h[30] 1.9282586326827316e+00
h[31] 1.8439888508853621e+00
y 1.6053017749130367e+00
x_1_0_ANN 2.4369023447190776e+00
s_1_0_ANN 0
z_1_0_ANN 1
x_1_1_ANN 1.9033304917498353e+00
s_1_1_ANN 0
z_1_1_ANN 1
x_1_2_ANN 0
s_1_2_ANN 5.9774974056896235e-01
z_1_2_ANN 0
x_1_3_ANN 1.5866969953752104e+00
s_1_3_ANN 0
z_1_3_ANN 1
x_1_4_ANN 0
s_1_4_ANN 9.0257373950212938e-01
z_1_4_ANN 0
x_1_5_ANN 6.6386163013748334e-01
s_1_5_ANN 0
z_1_5_ANN 1
x_1_6_ANN 0
s_1_6_ANN 1.0357966536093370e+00
z_1_6_ANN 0
x_1_7_ANN 3.1079619440213313e-02
s_1_7_ANN 0
z_1_7_ANN 1
x_1_8_ANN 3.7822535377008781e-01
s_1_8_ANN 0
z_1_8_ANN 1
x_1_9_ANN 1.4474967956244245e+00
s_1_9_ANN 0
z_1_9_ANN 1
x_1_10_ANN 0
s_1_10_ANN 1.0916343355373864e-02
z_1_10_ANN 0
x_1_11_ANN 0
s_1_11_ANN 3.2405215841836421e-01
z_1_11_ANN 0
x_1_12_ANN 0
s_1_12_ANN 4.6942200913888760e-01
z_1_12_ANN 0
x_1_13_ANN 1.3846199661488907e+00
s_1_13_ANN 0
z_1_13_ANN 1
x_1_14_ANN 0
s_1_14_ANN 7.9896609475929092e-01
z_1_14_ANN 0
x_1_15_ANN 0
s_1_15_ANN 1.5754631257252811e+00
z_1_15_ANN 0
